N = 126;
M = 286;
Edge_Start = [1, 2, 3, 3, 4, 5, 6, 7, 7, 8, 9, 9, 10, 11, 13, 14, 15, 16, 17, 19, 19, 20, 21, 22, 23, 23, 24, 25, 25, 26, 27, 27, 28, 29, 29, 30, 31, 32, 32, 33, 34, 34, 36, 38, 38, 39, 40, 40, 41, 42, 43, 44, 44, 45, 46, 46, 48, 49, 49, 50, 51, 51, 52, 53, 54, 55, 55, 57, 57, 58, 59, 59, 61, 61, 62, 63, 64, 64, 65, 66, 66, 68, 68, 69, 70, 71, 72, 72, 73, 74, 74, 76, 77, 80, 81, 82, 83, 83, 84, 85, 85, 86, 87, 87, 88, 91, 92, 93, 93, 94, 95, 96, 97, 98, 98, 100, 100, 101, 102, 102, 104, 105, 106, 106, 107, 108, 108, 109, 110, 110, 112, 113, 114, 115, 116, 118, 119, 120, 121, 122, 123, 124, 125, 16, 3, 4, 18, 5, 20, 7, 8, 22, 9, 10, 24, 11, 12, 28, 15, 30, 17, 33, 20, 35, 21, 37, 23, 24, 39, 25, 26, 41, 27, 28, 43, 29, 30, 45, 31, 47, 33, 48, 34, 35, 50, 37, 39, 54, 40, 41, 56, 42, 43, 44, 45, 60, 46, 47, 62, 49, 50, 65, 51, 52, 67, 53, 69, 55, 56, 71, 58, 73, 59, 60, 75, 62, 77, 63, 79, 65, 80, 66, 67, 82, 69, 84, 70, 71, 72, 73, 88, 74, 75, 90, 77, 78, 81, 82, 83, 84, 99, 85, 86, 101, 87, 88, 103, 89, 92, 93, 94, 109, 95, 111, 97, 98, 99, 114, 101, 116, 102, 103, 118, 105, 106, 107, 122, 108, 109, 124, 110, 111, 126, 113, 114, 115, 116, 117, 119, 120, 121, 122, 123, 124, 125, 126];
Edge_End = [16, 3, 4, 18, 5, 20, 7, 8, 22, 9, 10, 24, 11, 12, 28, 15, 30, 17, 33, 20, 35, 21, 37, 23, 24, 39, 25, 26, 41, 27, 28, 43, 29, 30, 45, 31, 47, 33, 48, 34, 35, 50, 37, 39, 54, 40, 41, 56, 42, 43, 44, 45, 60, 46, 47, 62, 49, 50, 65, 51, 52, 67, 53, 69, 55, 56, 71, 58, 73, 59, 60, 75, 62, 77, 63, 79, 65, 80, 66, 67, 82, 69, 84, 70, 71, 72, 73, 88, 74, 75, 90, 77, 78, 81, 82, 83, 84, 99, 85, 86, 101, 87, 88, 103, 89, 92, 93, 94, 109, 95, 111, 97, 98, 99, 114, 101, 116, 102, 103, 118, 105, 106, 107, 122, 108, 109, 124, 110, 111, 126, 113, 114, 115, 116, 117, 119, 120, 121, 122, 123, 124, 125, 126, 1, 2, 3, 3, 4, 5, 6, 7, 7, 8, 9, 9, 10, 11, 13, 14, 15, 16, 17, 19, 19, 20, 21, 22, 23, 23, 24, 25, 25, 26, 27, 27, 28, 29, 29, 30, 31, 32, 32, 33, 34, 34, 36, 38, 38, 39, 40, 40, 41, 42, 43, 44, 44, 45, 46, 46, 48, 49, 49, 50, 51, 51, 52, 53, 54, 55, 55, 57, 57, 58, 59, 59, 61, 61, 62, 63, 64, 64, 65, 66, 66, 68, 68, 69, 70, 71, 72, 72, 73, 74, 74, 76, 77, 80, 81, 82, 83, 83, 84, 85, 85, 86, 87, 87, 88, 91, 92, 93, 93, 94, 95, 96, 97, 98, 98, 100, 100, 101, 102, 102, 104, 105, 106, 106, 107, 108, 108, 109, 110, 110, 112, 113, 114, 115, 116, 118, 119, 120, 121, 122, 123, 124, 125];
L = [5, 16, 7, 5, 4, 16, 7, 11, 14, 1, 16, 1, 13, 5, 1, 3, 1, 12, 18, 4, 6, 6, 4, 11, 16, 4, 10, 7, 4, 1, 6, 9, 8, 5, 5, 15, 9, 6, 14, 2, 2, 11, 1, 12, 12, 3, 6, 2, 3, 3, 4, 15, 15, 8, 7, 8, 7, 9, 6, 15, 1, 1, 2, 4, 2, 1, 3, 12, 14, 9, 5, 19, 13, 6, 10, 10, 14, 15, 8, 10, 1, 1, 14, 6, 16, 17, 9, 19, 1, 15, 2, 8, 16, 8, 9, 3, 3, 3, 7, 12, 18, 8, 4, 15, 9, 10, 2, 5, 19, 8, 11, 8, 1, 9, 18, 11, 2, 14, 8, 9, 6, 18, 17, 6, 10, 16, 15, 13, 17, 3, 11, 15, 9, 3, 9, 14, 12, 9, 16, 12, 15, 6, 1, 5, 16, 7, 5, 4, 16, 7, 11, 14, 1, 16, 1, 13, 5, 1, 3, 1, 12, 18, 4, 6, 6, 4, 11, 16, 4, 10, 7, 4, 1, 6, 9, 8, 5, 5, 15, 9, 6, 14, 2, 2, 11, 1, 12, 12, 3, 6, 2, 3, 3, 4, 15, 15, 8, 7, 8, 7, 9, 6, 15, 1, 1, 2, 4, 2, 1, 3, 12, 14, 9, 5, 19, 13, 6, 10, 10, 14, 15, 8, 10, 1, 1, 14, 6, 16, 17, 9, 19, 1, 15, 2, 8, 16, 8, 9, 3, 3, 3, 7, 12, 18, 8, 4, 15, 9, 10, 2, 5, 19, 8, 11, 8, 1, 9, 18, 11, 2, 14, 8, 9, 6, 18, 17, 6, 10, 16, 15, 13, 17, 3, 11, 15, 9, 3, 9, 14, 12, 9, 16, 12, 15, 6, 1];
T = [1, 23, 8, 1, 1, 22, 1, 15, 10, 6, 7, 1, 19, 3, 1, 10, 7, 15, 20, 1, 6, 11, 13, 12, 14, 8, 18, 4, 4, 2, 2, 4, 9, 9, 8, 25, 4, 15, 17, 1, 1, 10, 2, 23, 11, 1, 3, 1, 7, 1, 4, 16, 17, 10, 1, 11, 1, 13, 8, 11, 1, 8, 1, 1, 1, 5, 1, 18, 13, 12, 1, 18, 21, 1, 16, 15, 24, 17, 2, 8, 3, 1, 11, 8, 16, 9, 7, 19, 1, 18, 10, 11, 21, 1, 10, 1, 10, 1, 18, 13, 23, 2, 7, 13, 14, 6, 4, 1, 17, 8, 11, 8, 1, 18, 15, 8, 9, 10, 11, 7, 9, 29, 18, 1, 9, 19, 7, 21, 19, 1, 18, 14, 9, 5, 6, 18, 8, 1, 15, 15, 10, 12, 11, 1, 23, 8, 1, 1, 22, 1, 15, 10, 6, 7, 1, 19, 3, 1, 10, 7, 15, 20, 1, 6, 11, 13, 12, 14, 8, 18, 4, 4, 2, 2, 4, 9, 9, 8, 25, 4, 15, 17, 1, 1, 10, 2, 23, 11, 1, 3, 1, 7, 1, 4, 16, 17, 10, 1, 11, 1, 13, 8, 11, 1, 8, 1, 1, 1, 5, 1, 18, 13, 12, 1, 18, 21, 1, 16, 15, 24, 17, 2, 8, 3, 1, 11, 8, 16, 9, 7, 19, 1, 18, 10, 11, 21, 1, 10, 1, 10, 1, 18, 13, 23, 2, 7, 13, 14, 6, 4, 1, 17, 8, 11, 8, 1, 18, 15, 8, 9, 10, 11, 7, 9, 29, 18, 1, 9, 19, 7, 21, 19, 1, 18, 14, 9, 5, 6, 18, 8, 1, 15, 15, 10, 12, 11];
Lower_Bound = [0, 99, 76, 68, 67, 124, 123, 122, 116, 123, 142, 145, 108, 142, 132, 1, 16, 77, 44, 45, 56, 113, 101, 115, 99, 103, 105, 107, 116, 125, 138, 51, 36, 37, 38, 71, 69, 98, 93, 92, 95, 102, 103, 107, 123, 133, 134, 61, 60, 47, 58, 59, 60, 87, 86, 91, 114, 132, 125, 124, 165, 144, 160, 92, 68, 70, 66, 62, 61, 69, 85, 94, 101, 102, 120, 177, 166, 187, 175, 84, 83, 73, 74, 73, 91, 104, 106, 113, 127, 112, 247, 241, 237, 238, 246, 102, 94, 93, 75, 122, 114, 124, 119, 212, 203, 174, 192, 201, 220, 222, 241, 140, 122, 108, 117, 122, 128, 131, 149, 157, 158, 173, 188, 198, 210, 221];
Upper_Bound = [0, 99, 76, 68, 67, 124, 123, 122, 116, 123, 142, 145, 108, 142, 132, 1, 16, 77, 44, 45, 56, 113, 101, 115, 99, 103, 105, 107, 116, 125, 138, 51, 36, 37, 38, 71, 69, 98, 93, 92, 95, 102, 103, 107, 123, 133, 134, 61, 60, 47, 58, 59, 60, 87, 86, 91, 114, 132, 125, 124, 165, 144, 160, 92, 68, 70, 66, 62, 61, 69, 85, 94, 101, 102, 120, 177, 166, 187, 175, 84, 83, 73, 74, 73, 91, 104, 106, 113, 127, 112, 247, 241, 237, 238, 246, 102, 94, 93, 75, 122, 114, 124, 119, 212, 203, 174, 192, 201, 220, 222, 241, 140, 122, 108, 117, 122, 128, 131, 149, 157, 158, 173, 188, 198, 210, 221];
Start = 1;
End = 126;
Time = 221;
